(set-logic QF_BV)
(declare-fun _substvar_146_ () (_ BitVec 256))
(assert (and true true true true true true true true true true true true true true true true true true true (not (= ((_ extract 223 192) _substvar_146_) ((_ extract 191 160) _substvar_146_))) true true true true true))
(check-sat)
(exit)
